p cnf 96 2412 
1 2 3 4 5 6 7 8 0
9 10 11 12 13 14 15 16 0
17 18 19 20 21 22 23 24 0
25 26 27 28 29 30 31 32 0
33 34 35 36 37 38 39 40 0
41 42 43 44 45 46 47 48 0
49 50 51 52 53 54 55 56 0
57 58 59 60 61 62 63 64 0
65 66 67 68 69 70 71 72 0
73 74 75 76 77 78 79 80 0
81 82 83 84 85 86 87 88 0
89 90 91 92 93 94 95 96 0
-1 -2 0
-1 -3 0
-1 -4 0
-1 -5 0
-1 -6 0
-1 -7 0
-1 -8 0
-2 -1 0
-2 -3 0
-2 -4 0
-2 -5 0
-2 -6 0
-2 -7 0
-2 -8 0
-9 -10 0
-9 -11 0
-9 -12 0
-9 -13 0
-9 -14 0
-9 -15 0
-9 -16 0
-10 -9 0
-10 -11 0
-10 -12 0
-10 -13 0
-10 -14 0
-10 -15 0
-10 -16 0
-17 -18 0
-17 -19 0
-17 -20 0
-17 -21 0
-17 -22 0
-17 -23 0
-17 -24 0
-18 -17 0
-18 -19 0
-18 -20 0
-18 -21 0
-18 -22 0
-18 -23 0
-18 -24 0
-25 -26 0
-25 -27 0
-25 -28 0
-25 -29 0
-25 -30 0
-25 -31 0
-25 -32 0
-26 -25 0
-26 -27 0
-26 -28 0
-26 -29 0
-26 -30 0
-26 -31 0
-26 -32 0
-33 -34 0
-33 -35 0
-33 -36 0
-33 -37 0
-33 -38 0
-33 -39 0
-33 -40 0
-34 -33 0
-34 -35 0
-34 -36 0
-34 -37 0
-34 -38 0
-34 -39 0
-34 -40 0
-41 -42 0
-41 -43 0
-41 -44 0
-41 -45 0
-41 -46 0
-41 -47 0
-41 -48 0
-42 -41 0
-42 -43 0
-42 -44 0
-42 -45 0
-42 -46 0
-42 -47 0
-42 -48 0
-49 -50 0
-49 -51 0
-49 -52 0
-49 -53 0
-49 -54 0
-49 -55 0
-49 -56 0
-50 -49 0
-50 -51 0
-50 -52 0
-50 -53 0
-50 -54 0
-50 -55 0
-50 -56 0
-57 -58 0
-57 -59 0
-57 -60 0
-57 -61 0
-57 -62 0
-57 -63 0
-57 -64 0
-58 -57 0
-58 -59 0
-58 -60 0
-58 -61 0
-58 -62 0
-58 -63 0
-58 -64 0
-65 -66 0
-65 -67 0
-65 -68 0
-65 -69 0
-65 -70 0
-65 -71 0
-65 -72 0
-66 -65 0
-66 -67 0
-66 -68 0
-66 -69 0
-66 -70 0
-66 -71 0
-66 -72 0
-73 -74 0
-73 -75 0
-73 -76 0
-73 -77 0
-73 -78 0
-73 -79 0
-73 -80 0
-74 -73 0
-74 -75 0
-74 -76 0
-74 -77 0
-74 -78 0
-74 -79 0
-74 -80 0
-81 -82 0
-81 -83 0
-81 -84 0
-81 -85 0
-81 -86 0
-81 -87 0
-81 -88 0
-82 -81 0
-82 -83 0
-82 -84 0
-82 -85 0
-82 -86 0
-82 -87 0
-82 -88 0
-89 -90 0
-89 -91 0
-89 -92 0
-89 -93 0
-89 -94 0
-89 -95 0
-89 -96 0
-90 -89 0
-90 -91 0
-90 -92 0
-90 -93 0
-90 -94 0
-90 -95 0
-90 -96 0
-3 -1 0
-3 -2 0
-3 -4 0
-3 -5 0
-3 -6 0
-3 -7 0
-3 -8 0
-4 -1 0
-4 -2 0
-4 -3 0
-4 -5 0
-4 -6 0
-4 -7 0
-4 -8 0
-11 -9 0
-11 -10 0
-11 -12 0
-11 -13 0
-11 -14 0
-11 -15 0
-11 -16 0
-12 -9 0
-12 -10 0
-12 -11 0
-12 -13 0
-12 -14 0
-12 -15 0
-12 -16 0
-19 -17 0
-19 -18 0
-19 -20 0
-19 -21 0
-19 -22 0
-19 -23 0
-19 -24 0
-20 -17 0
-20 -18 0
-20 -19 0
-20 -21 0
-20 -22 0
-20 -23 0
-20 -24 0
-27 -25 0
-27 -26 0
-27 -28 0
-27 -29 0
-27 -30 0
-27 -31 0
-27 -32 0
-28 -25 0
-28 -26 0
-28 -27 0
-28 -29 0
-28 -30 0
-28 -31 0
-28 -32 0
-35 -33 0
-35 -34 0
-35 -36 0
-35 -37 0
-35 -38 0
-35 -39 0
-35 -40 0
-36 -33 0
-36 -34 0
-36 -35 0
-36 -37 0
-36 -38 0
-36 -39 0
-36 -40 0
-43 -41 0
-43 -42 0
-43 -44 0
-43 -45 0
-43 -46 0
-43 -47 0
-43 -48 0
-44 -41 0
-44 -42 0
-44 -43 0
-44 -45 0
-44 -46 0
-44 -47 0
-44 -48 0
-51 -49 0
-51 -50 0
-51 -52 0
-51 -53 0
-51 -54 0
-51 -55 0
-51 -56 0
-52 -49 0
-52 -50 0
-52 -51 0
-52 -53 0
-52 -54 0
-52 -55 0
-52 -56 0
-59 -57 0
-59 -58 0
-59 -60 0
-59 -61 0
-59 -62 0
-59 -63 0
-59 -64 0
-60 -57 0
-60 -58 0
-60 -59 0
-60 -61 0
-60 -62 0
-60 -63 0
-60 -64 0
-67 -65 0
-67 -66 0
-67 -68 0
-67 -69 0
-67 -70 0
-67 -71 0
-67 -72 0
-68 -65 0
-68 -66 0
-68 -67 0
-68 -69 0
-68 -70 0
-68 -71 0
-68 -72 0
-75 -73 0
-75 -74 0
-75 -76 0
-75 -77 0
-75 -78 0
-75 -79 0
-75 -80 0
-76 -73 0
-76 -74 0
-76 -75 0
-76 -77 0
-76 -78 0
-76 -79 0
-76 -80 0
-83 -81 0
-83 -82 0
-83 -84 0
-83 -85 0
-83 -86 0
-83 -87 0
-83 -88 0
-84 -81 0
-84 -82 0
-84 -83 0
-84 -85 0
-84 -86 0
-84 -87 0
-84 -88 0
-91 -89 0
-91 -90 0
-91 -92 0
-91 -93 0
-91 -94 0
-91 -95 0
-91 -96 0
-92 -89 0
-92 -90 0
-92 -91 0
-92 -93 0
-92 -94 0
-92 -95 0
-92 -96 0
-5 -1 0
-5 -2 0
-5 -3 0
-5 -4 0
-5 -6 0
-5 -7 0
-5 -8 0
-6 -1 0
-6 -2 0
-6 -3 0
-6 -4 0
-6 -5 0
-6 -7 0
-6 -8 0
-13 -9 0
-13 -10 0
-13 -11 0
-13 -12 0
-13 -14 0
-13 -15 0
-13 -16 0
-14 -9 0
-14 -10 0
-14 -11 0
-14 -12 0
-14 -13 0
-14 -15 0
-14 -16 0
-21 -17 0
-21 -18 0
-21 -19 0
-21 -20 0
-21 -22 0
-21 -23 0
-21 -24 0
-22 -17 0
-22 -18 0
-22 -19 0
-22 -20 0
-22 -21 0
-22 -23 0
-22 -24 0
-29 -25 0
-29 -26 0
-29 -27 0
-29 -28 0
-29 -30 0
-29 -31 0
-29 -32 0
-30 -25 0
-30 -26 0
-30 -27 0
-30 -28 0
-30 -29 0
-30 -31 0
-30 -32 0
-37 -33 0
-37 -34 0
-37 -35 0
-37 -36 0
-37 -38 0
-37 -39 0
-37 -40 0
-38 -33 0
-38 -34 0
-38 -35 0
-38 -36 0
-38 -37 0
-38 -39 0
-38 -40 0
-45 -41 0
-45 -42 0
-45 -43 0
-45 -44 0
-45 -46 0
-45 -47 0
-45 -48 0
-46 -41 0
-46 -42 0
-46 -43 0
-46 -44 0
-46 -45 0
-46 -47 0
-46 -48 0
-53 -49 0
-53 -50 0
-53 -51 0
-53 -52 0
-53 -54 0
-53 -55 0
-53 -56 0
-54 -49 0
-54 -50 0
-54 -51 0
-54 -52 0
-54 -53 0
-54 -55 0
-54 -56 0
-61 -57 0
-61 -58 0
-61 -59 0
-61 -60 0
-61 -62 0
-61 -63 0
-61 -64 0
-62 -57 0
-62 -58 0
-62 -59 0
-62 -60 0
-62 -61 0
-62 -63 0
-62 -64 0
-69 -65 0
-69 -66 0
-69 -67 0
-69 -68 0
-69 -70 0
-69 -71 0
-69 -72 0
-70 -65 0
-70 -66 0
-70 -67 0
-70 -68 0
-70 -69 0
-70 -71 0
-70 -72 0
-77 -73 0
-77 -74 0
-77 -75 0
-77 -76 0
-77 -78 0
-77 -79 0
-77 -80 0
-78 -73 0
-78 -74 0
-78 -75 0
-78 -76 0
-78 -77 0
-78 -79 0
-78 -80 0
-85 -81 0
-85 -82 0
-85 -83 0
-85 -84 0
-85 -86 0
-85 -87 0
-85 -88 0
-86 -81 0
-86 -82 0
-86 -83 0
-86 -84 0
-86 -85 0
-86 -87 0
-86 -88 0
-93 -89 0
-93 -90 0
-93 -91 0
-93 -92 0
-93 -94 0
-93 -95 0
-93 -96 0
-94 -89 0
-94 -90 0
-94 -91 0
-94 -92 0
-94 -93 0
-94 -95 0
-94 -96 0
-7 -1 0
-7 -2 0
-7 -3 0
-7 -4 0
-7 -5 0
-7 -6 0
-7 -8 0
-8 -1 0
-8 -2 0
-8 -3 0
-8 -4 0
-8 -5 0
-8 -6 0
-8 -7 0
-15 -9 0
-15 -10 0
-15 -11 0
-15 -12 0
-15 -13 0
-15 -14 0
-15 -16 0
-16 -9 0
-16 -10 0
-16 -11 0
-16 -12 0
-16 -13 0
-16 -14 0
-16 -15 0
-23 -17 0
-23 -18 0
-23 -19 0
-23 -20 0
-23 -21 0
-23 -22 0
-23 -24 0
-24 -17 0
-24 -18 0
-24 -19 0
-24 -20 0
-24 -21 0
-24 -22 0
-24 -23 0
-31 -25 0
-31 -26 0
-31 -27 0
-31 -28 0
-31 -29 0
-31 -30 0
-31 -32 0
-32 -25 0
-32 -26 0
-32 -27 0
-32 -28 0
-32 -29 0
-32 -30 0
-32 -31 0
-39 -33 0
-39 -34 0
-39 -35 0
-39 -36 0
-39 -37 0
-39 -38 0
-39 -40 0
-40 -33 0
-40 -34 0
-40 -35 0
-40 -36 0
-40 -37 0
-40 -38 0
-40 -39 0
-47 -41 0
-47 -42 0
-47 -43 0
-47 -44 0
-47 -45 0
-47 -46 0
-47 -48 0
-48 -41 0
-48 -42 0
-48 -43 0
-48 -44 0
-48 -45 0
-48 -46 0
-48 -47 0
-55 -49 0
-55 -50 0
-55 -51 0
-55 -52 0
-55 -53 0
-55 -54 0
-55 -56 0
-56 -49 0
-56 -50 0
-56 -51 0
-56 -52 0
-56 -53 0
-56 -54 0
-56 -55 0
-63 -57 0
-63 -58 0
-63 -59 0
-63 -60 0
-63 -61 0
-63 -62 0
-63 -64 0
-64 -57 0
-64 -58 0
-64 -59 0
-64 -60 0
-64 -61 0
-64 -62 0
-64 -63 0
-71 -65 0
-71 -66 0
-71 -67 0
-71 -68 0
-71 -69 0
-71 -70 0
-71 -72 0
-72 -65 0
-72 -66 0
-72 -67 0
-72 -68 0
-72 -69 0
-72 -70 0
-72 -71 0
-79 -73 0
-79 -74 0
-79 -75 0
-79 -76 0
-79 -77 0
-79 -78 0
-79 -80 0
-80 -73 0
-80 -74 0
-80 -75 0
-80 -76 0
-80 -77 0
-80 -78 0
-80 -79 0
-87 -81 0
-87 -82 0
-87 -83 0
-87 -84 0
-87 -85 0
-87 -86 0
-87 -88 0
-88 -81 0
-88 -82 0
-88 -83 0
-88 -84 0
-88 -85 0
-88 -86 0
-88 -87 0
-95 -89 0
-95 -90 0
-95 -91 0
-95 -92 0
-95 -93 0
-95 -94 0
-95 -96 0
-96 -89 0
-96 -90 0
-96 -91 0
-96 -92 0
-96 -93 0
-96 -94 0
-96 -95 0
-1 -9 0
-1 -10 0
-1 -17 0
-1 -18 0
-2 -9 0
-2 -10 0
-2 -17 0
-2 -18 0
-9 -1 0
-9 -2 0
-9 -17 0
-9 -18 0
-10 -1 0
-10 -2 0
-10 -17 0
-10 -18 0
-17 -1 0
-17 -2 0
-17 -9 0
-17 -10 0
-18 -1 0
-18 -2 0
-18 -9 0
-18 -10 0
-25 -33 0
-25 -34 0
-25 -41 0
-25 -42 0
-26 -33 0
-26 -34 0
-26 -41 0
-26 -42 0
-33 -25 0
-33 -26 0
-33 -41 0
-33 -42 0
-34 -25 0
-34 -26 0
-34 -41 0
-34 -42 0
-41 -25 0
-41 -26 0
-41 -33 0
-41 -34 0
-42 -25 0
-42 -26 0
-42 -33 0
-42 -34 0
-49 -57 0
-49 -58 0
-49 -65 0
-49 -66 0
-50 -57 0
-50 -58 0
-50 -65 0
-50 -66 0
-57 -49 0
-57 -50 0
-57 -65 0
-57 -66 0
-58 -49 0
-58 -50 0
-58 -65 0
-58 -66 0
-65 -49 0
-65 -50 0
-65 -57 0
-65 -58 0
-66 -49 0
-66 -50 0
-66 -57 0
-66 -58 0
-73 -81 0
-73 -82 0
-73 -89 0
-73 -90 0
-74 -81 0
-74 -82 0
-74 -89 0
-74 -90 0
-81 -73 0
-81 -74 0
-81 -89 0
-81 -90 0
-82 -73 0
-82 -74 0
-82 -89 0
-82 -90 0
-89 -73 0
-89 -74 0
-89 -81 0
-89 -82 0
-90 -73 0
-90 -74 0
-90 -81 0
-90 -82 0
-3 -11 0
-3 -12 0
-3 -19 0
-3 -20 0
-4 -11 0
-4 -12 0
-4 -19 0
-4 -20 0
-11 -3 0
-11 -4 0
-11 -19 0
-11 -20 0
-12 -3 0
-12 -4 0
-12 -19 0
-12 -20 0
-19 -3 0
-19 -4 0
-19 -11 0
-19 -12 0
-20 -3 0
-20 -4 0
-20 -11 0
-20 -12 0
-27 -35 0
-27 -36 0
-27 -43 0
-27 -44 0
-28 -35 0
-28 -36 0
-28 -43 0
-28 -44 0
-35 -27 0
-35 -28 0
-35 -43 0
-35 -44 0
-36 -27 0
-36 -28 0
-36 -43 0
-36 -44 0
-43 -27 0
-43 -28 0
-43 -35 0
-43 -36 0
-44 -27 0
-44 -28 0
-44 -35 0
-44 -36 0
-51 -59 0
-51 -60 0
-51 -67 0
-51 -68 0
-52 -59 0
-52 -60 0
-52 -67 0
-52 -68 0
-59 -51 0
-59 -52 0
-59 -67 0
-59 -68 0
-60 -51 0
-60 -52 0
-60 -67 0
-60 -68 0
-67 -51 0
-67 -52 0
-67 -59 0
-67 -60 0
-68 -51 0
-68 -52 0
-68 -59 0
-68 -60 0
-75 -83 0
-75 -84 0
-75 -91 0
-75 -92 0
-76 -83 0
-76 -84 0
-76 -91 0
-76 -92 0
-83 -75 0
-83 -76 0
-83 -91 0
-83 -92 0
-84 -75 0
-84 -76 0
-84 -91 0
-84 -92 0
-91 -75 0
-91 -76 0
-91 -83 0
-91 -84 0
-92 -75 0
-92 -76 0
-92 -83 0
-92 -84 0
-5 -13 0
-5 -14 0
-5 -21 0
-5 -22 0
-6 -13 0
-6 -14 0
-6 -21 0
-6 -22 0
-13 -5 0
-13 -6 0
-13 -21 0
-13 -22 0
-14 -5 0
-14 -6 0
-14 -21 0
-14 -22 0
-21 -5 0
-21 -6 0
-21 -13 0
-21 -14 0
-22 -5 0
-22 -6 0
-22 -13 0
-22 -14 0
-29 -37 0
-29 -38 0
-29 -45 0
-29 -46 0
-30 -37 0
-30 -38 0
-30 -45 0
-30 -46 0
-37 -29 0
-37 -30 0
-37 -45 0
-37 -46 0
-38 -29 0
-38 -30 0
-38 -45 0
-38 -46 0
-45 -29 0
-45 -30 0
-45 -37 0
-45 -38 0
-46 -29 0
-46 -30 0
-46 -37 0
-46 -38 0
-53 -61 0
-53 -62 0
-53 -69 0
-53 -70 0
-54 -61 0
-54 -62 0
-54 -69 0
-54 -70 0
-61 -53 0
-61 -54 0
-61 -69 0
-61 -70 0
-62 -53 0
-62 -54 0
-62 -69 0
-62 -70 0
-69 -53 0
-69 -54 0
-69 -61 0
-69 -62 0
-70 -53 0
-70 -54 0
-70 -61 0
-70 -62 0
-77 -85 0
-77 -86 0
-77 -93 0
-77 -94 0
-78 -85 0
-78 -86 0
-78 -93 0
-78 -94 0
-85 -77 0
-85 -78 0
-85 -93 0
-85 -94 0
-86 -77 0
-86 -78 0
-86 -93 0
-86 -94 0
-93 -77 0
-93 -78 0
-93 -85 0
-93 -86 0
-94 -77 0
-94 -78 0
-94 -85 0
-94 -86 0
-7 -15 0
-7 -16 0
-7 -23 0
-7 -24 0
-8 -15 0
-8 -16 0
-8 -23 0
-8 -24 0
-15 -7 0
-15 -8 0
-15 -23 0
-15 -24 0
-16 -7 0
-16 -8 0
-16 -23 0
-16 -24 0
-23 -7 0
-23 -8 0
-23 -15 0
-23 -16 0
-24 -7 0
-24 -8 0
-24 -15 0
-24 -16 0
-31 -39 0
-31 -40 0
-31 -47 0
-31 -48 0
-32 -39 0
-32 -40 0
-32 -47 0
-32 -48 0
-39 -31 0
-39 -32 0
-39 -47 0
-39 -48 0
-40 -31 0
-40 -32 0
-40 -47 0
-40 -48 0
-47 -31 0
-47 -32 0
-47 -39 0
-47 -40 0
-48 -31 0
-48 -32 0
-48 -39 0
-48 -40 0
-55 -63 0
-55 -64 0
-55 -71 0
-55 -72 0
-56 -63 0
-56 -64 0
-56 -71 0
-56 -72 0
-63 -55 0
-63 -56 0
-63 -71 0
-63 -72 0
-64 -55 0
-64 -56 0
-64 -71 0
-64 -72 0
-71 -55 0
-71 -56 0
-71 -63 0
-71 -64 0
-72 -55 0
-72 -56 0
-72 -63 0
-72 -64 0
-79 -87 0
-79 -88 0
-79 -95 0
-79 -96 0
-80 -87 0
-80 -88 0
-80 -95 0
-80 -96 0
-87 -79 0
-87 -80 0
-87 -95 0
-87 -96 0
-88 -79 0
-88 -80 0
-88 -95 0
-88 -96 0
-95 -79 0
-95 -80 0
-95 -87 0
-95 -88 0
-96 -79 0
-96 -80 0
-96 -87 0
-96 -88 0
-1 -9 0
-1 -17 0
-1 -25 0
-1 -33 0
-1 -41 0
-1 -49 0
-1 -57 0
-1 -65 0
-1 -73 0
-1 -81 0
-1 -89 0
-9 -1 0
-9 -17 0
-9 -25 0
-9 -33 0
-9 -41 0
-9 -49 0
-9 -57 0
-9 -65 0
-9 -73 0
-9 -81 0
-9 -89 0
-17 -1 0
-17 -9 0
-17 -25 0
-17 -33 0
-17 -41 0
-17 -49 0
-17 -57 0
-17 -65 0
-17 -73 0
-17 -81 0
-17 -89 0
-25 -1 0
-25 -9 0
-25 -17 0
-25 -33 0
-25 -41 0
-25 -49 0
-25 -57 0
-25 -65 0
-25 -73 0
-25 -81 0
-25 -89 0
-33 -1 0
-33 -9 0
-33 -17 0
-33 -25 0
-33 -41 0
-33 -49 0
-33 -57 0
-33 -65 0
-33 -73 0
-33 -81 0
-33 -89 0
-41 -1 0
-41 -9 0
-41 -17 0
-41 -25 0
-41 -33 0
-41 -49 0
-41 -57 0
-41 -65 0
-41 -73 0
-41 -81 0
-41 -89 0
-49 -1 0
-49 -9 0
-49 -17 0
-49 -25 0
-49 -33 0
-49 -41 0
-49 -57 0
-49 -65 0
-49 -73 0
-49 -81 0
-49 -89 0
-57 -1 0
-57 -9 0
-57 -17 0
-57 -25 0
-57 -33 0
-57 -41 0
-57 -49 0
-57 -65 0
-57 -73 0
-57 -81 0
-57 -89 0
-65 -1 0
-65 -9 0
-65 -17 0
-65 -25 0
-65 -33 0
-65 -41 0
-65 -49 0
-65 -57 0
-65 -73 0
-65 -81 0
-65 -89 0
-73 -1 0
-73 -9 0
-73 -17 0
-73 -25 0
-73 -33 0
-73 -41 0
-73 -49 0
-73 -57 0
-73 -65 0
-73 -81 0
-73 -89 0
-81 -1 0
-81 -9 0
-81 -17 0
-81 -25 0
-81 -33 0
-81 -41 0
-81 -49 0
-81 -57 0
-81 -65 0
-81 -73 0
-81 -89 0
-89 -1 0
-89 -9 0
-89 -17 0
-89 -25 0
-89 -33 0
-89 -41 0
-89 -49 0
-89 -57 0
-89 -65 0
-89 -73 0
-89 -81 0
-2 -10 0
-2 -18 0
-2 -26 0
-2 -34 0
-2 -42 0
-2 -50 0
-2 -58 0
-2 -66 0
-2 -74 0
-2 -82 0
-2 -90 0
-10 -2 0
-10 -18 0
-10 -26 0
-10 -34 0
-10 -42 0
-10 -50 0
-10 -58 0
-10 -66 0
-10 -74 0
-10 -82 0
-10 -90 0
-18 -2 0
-18 -10 0
-18 -26 0
-18 -34 0
-18 -42 0
-18 -50 0
-18 -58 0
-18 -66 0
-18 -74 0
-18 -82 0
-18 -90 0
-26 -2 0
-26 -10 0
-26 -18 0
-26 -34 0
-26 -42 0
-26 -50 0
-26 -58 0
-26 -66 0
-26 -74 0
-26 -82 0
-26 -90 0
-34 -2 0
-34 -10 0
-34 -18 0
-34 -26 0
-34 -42 0
-34 -50 0
-34 -58 0
-34 -66 0
-34 -74 0
-34 -82 0
-34 -90 0
-42 -2 0
-42 -10 0
-42 -18 0
-42 -26 0
-42 -34 0
-42 -50 0
-42 -58 0
-42 -66 0
-42 -74 0
-42 -82 0
-42 -90 0
-50 -2 0
-50 -10 0
-50 -18 0
-50 -26 0
-50 -34 0
-50 -42 0
-50 -58 0
-50 -66 0
-50 -74 0
-50 -82 0
-50 -90 0
-58 -2 0
-58 -10 0
-58 -18 0
-58 -26 0
-58 -34 0
-58 -42 0
-58 -50 0
-58 -66 0
-58 -74 0
-58 -82 0
-58 -90 0
-66 -2 0
-66 -10 0
-66 -18 0
-66 -26 0
-66 -34 0
-66 -42 0
-66 -50 0
-66 -58 0
-66 -74 0
-66 -82 0
-66 -90 0
-74 -2 0
-74 -10 0
-74 -18 0
-74 -26 0
-74 -34 0
-74 -42 0
-74 -50 0
-74 -58 0
-74 -66 0
-74 -82 0
-74 -90 0
-82 -2 0
-82 -10 0
-82 -18 0
-82 -26 0
-82 -34 0
-82 -42 0
-82 -50 0
-82 -58 0
-82 -66 0
-82 -74 0
-82 -90 0
-90 -2 0
-90 -10 0
-90 -18 0
-90 -26 0
-90 -34 0
-90 -42 0
-90 -50 0
-90 -58 0
-90 -66 0
-90 -74 0
-90 -82 0
-3 -11 0
-3 -19 0
-3 -27 0
-3 -35 0
-3 -43 0
-3 -51 0
-3 -59 0
-3 -67 0
-3 -75 0
-3 -83 0
-3 -91 0
-11 -3 0
-11 -19 0
-11 -27 0
-11 -35 0
-11 -43 0
-11 -51 0
-11 -59 0
-11 -67 0
-11 -75 0
-11 -83 0
-11 -91 0
-19 -3 0
-19 -11 0
-19 -27 0
-19 -35 0
-19 -43 0
-19 -51 0
-19 -59 0
-19 -67 0
-19 -75 0
-19 -83 0
-19 -91 0
-27 -3 0
-27 -11 0
-27 -19 0
-27 -35 0
-27 -43 0
-27 -51 0
-27 -59 0
-27 -67 0
-27 -75 0
-27 -83 0
-27 -91 0
-35 -3 0
-35 -11 0
-35 -19 0
-35 -27 0
-35 -43 0
-35 -51 0
-35 -59 0
-35 -67 0
-35 -75 0
-35 -83 0
-35 -91 0
-43 -3 0
-43 -11 0
-43 -19 0
-43 -27 0
-43 -35 0
-43 -51 0
-43 -59 0
-43 -67 0
-43 -75 0
-43 -83 0
-43 -91 0
-51 -3 0
-51 -11 0
-51 -19 0
-51 -27 0
-51 -35 0
-51 -43 0
-51 -59 0
-51 -67 0
-51 -75 0
-51 -83 0
-51 -91 0
-59 -3 0
-59 -11 0
-59 -19 0
-59 -27 0
-59 -35 0
-59 -43 0
-59 -51 0
-59 -67 0
-59 -75 0
-59 -83 0
-59 -91 0
-67 -3 0
-67 -11 0
-67 -19 0
-67 -27 0
-67 -35 0
-67 -43 0
-67 -51 0
-67 -59 0
-67 -75 0
-67 -83 0
-67 -91 0
-75 -3 0
-75 -11 0
-75 -19 0
-75 -27 0
-75 -35 0
-75 -43 0
-75 -51 0
-75 -59 0
-75 -67 0
-75 -83 0
-75 -91 0
-83 -3 0
-83 -11 0
-83 -19 0
-83 -27 0
-83 -35 0
-83 -43 0
-83 -51 0
-83 -59 0
-83 -67 0
-83 -75 0
-83 -91 0
-91 -3 0
-91 -11 0
-91 -19 0
-91 -27 0
-91 -35 0
-91 -43 0
-91 -51 0
-91 -59 0
-91 -67 0
-91 -75 0
-91 -83 0
-4 -12 0
-4 -20 0
-4 -28 0
-4 -36 0
-4 -44 0
-4 -52 0
-4 -60 0
-4 -68 0
-4 -76 0
-4 -84 0
-4 -92 0
-12 -4 0
-12 -20 0
-12 -28 0
-12 -36 0
-12 -44 0
-12 -52 0
-12 -60 0
-12 -68 0
-12 -76 0
-12 -84 0
-12 -92 0
-20 -4 0
-20 -12 0
-20 -28 0
-20 -36 0
-20 -44 0
-20 -52 0
-20 -60 0
-20 -68 0
-20 -76 0
-20 -84 0
-20 -92 0
-28 -4 0
-28 -12 0
-28 -20 0
-28 -36 0
-28 -44 0
-28 -52 0
-28 -60 0
-28 -68 0
-28 -76 0
-28 -84 0
-28 -92 0
-36 -4 0
-36 -12 0
-36 -20 0
-36 -28 0
-36 -44 0
-36 -52 0
-36 -60 0
-36 -68 0
-36 -76 0
-36 -84 0
-36 -92 0
-44 -4 0
-44 -12 0
-44 -20 0
-44 -28 0
-44 -36 0
-44 -52 0
-44 -60 0
-44 -68 0
-44 -76 0
-44 -84 0
-44 -92 0
-52 -4 0
-52 -12 0
-52 -20 0
-52 -28 0
-52 -36 0
-52 -44 0
-52 -60 0
-52 -68 0
-52 -76 0
-52 -84 0
-52 -92 0
-60 -4 0
-60 -12 0
-60 -20 0
-60 -28 0
-60 -36 0
-60 -44 0
-60 -52 0
-60 -68 0
-60 -76 0
-60 -84 0
-60 -92 0
-68 -4 0
-68 -12 0
-68 -20 0
-68 -28 0
-68 -36 0
-68 -44 0
-68 -52 0
-68 -60 0
-68 -76 0
-68 -84 0
-68 -92 0
-76 -4 0
-76 -12 0
-76 -20 0
-76 -28 0
-76 -36 0
-76 -44 0
-76 -52 0
-76 -60 0
-76 -68 0
-76 -84 0
-76 -92 0
-84 -4 0
-84 -12 0
-84 -20 0
-84 -28 0
-84 -36 0
-84 -44 0
-84 -52 0
-84 -60 0
-84 -68 0
-84 -76 0
-84 -92 0
-92 -4 0
-92 -12 0
-92 -20 0
-92 -28 0
-92 -36 0
-92 -44 0
-92 -52 0
-92 -60 0
-92 -68 0
-92 -76 0
-92 -84 0
-5 -13 0
-5 -21 0
-5 -29 0
-5 -37 0
-5 -45 0
-5 -53 0
-5 -61 0
-5 -69 0
-5 -77 0
-5 -85 0
-5 -93 0
-13 -5 0
-13 -21 0
-13 -29 0
-13 -37 0
-13 -45 0
-13 -53 0
-13 -61 0
-13 -69 0
-13 -77 0
-13 -85 0
-13 -93 0
-21 -5 0
-21 -13 0
-21 -29 0
-21 -37 0
-21 -45 0
-21 -53 0
-21 -61 0
-21 -69 0
-21 -77 0
-21 -85 0
-21 -93 0
-29 -5 0
-29 -13 0
-29 -21 0
-29 -37 0
-29 -45 0
-29 -53 0
-29 -61 0
-29 -69 0
-29 -77 0
-29 -85 0
-29 -93 0
-37 -5 0
-37 -13 0
-37 -21 0
-37 -29 0
-37 -45 0
-37 -53 0
-37 -61 0
-37 -69 0
-37 -77 0
-37 -85 0
-37 -93 0
-45 -5 0
-45 -13 0
-45 -21 0
-45 -29 0
-45 -37 0
-45 -53 0
-45 -61 0
-45 -69 0
-45 -77 0
-45 -85 0
-45 -93 0
-53 -5 0
-53 -13 0
-53 -21 0
-53 -29 0
-53 -37 0
-53 -45 0
-53 -61 0
-53 -69 0
-53 -77 0
-53 -85 0
-53 -93 0
-61 -5 0
-61 -13 0
-61 -21 0
-61 -29 0
-61 -37 0
-61 -45 0
-61 -53 0
-61 -69 0
-61 -77 0
-61 -85 0
-61 -93 0
-69 -5 0
-69 -13 0
-69 -21 0
-69 -29 0
-69 -37 0
-69 -45 0
-69 -53 0
-69 -61 0
-69 -77 0
-69 -85 0
-69 -93 0
-77 -5 0
-77 -13 0
-77 -21 0
-77 -29 0
-77 -37 0
-77 -45 0
-77 -53 0
-77 -61 0
-77 -69 0
-77 -85 0
-77 -93 0
-85 -5 0
-85 -13 0
-85 -21 0
-85 -29 0
-85 -37 0
-85 -45 0
-85 -53 0
-85 -61 0
-85 -69 0
-85 -77 0
-85 -93 0
-93 -5 0
-93 -13 0
-93 -21 0
-93 -29 0
-93 -37 0
-93 -45 0
-93 -53 0
-93 -61 0
-93 -69 0
-93 -77 0
-93 -85 0
-6 -14 0
-6 -22 0
-6 -30 0
-6 -38 0
-6 -46 0
-6 -54 0
-6 -62 0
-6 -70 0
-6 -78 0
-6 -86 0
-6 -94 0
-14 -6 0
-14 -22 0
-14 -30 0
-14 -38 0
-14 -46 0
-14 -54 0
-14 -62 0
-14 -70 0
-14 -78 0
-14 -86 0
-14 -94 0
-22 -6 0
-22 -14 0
-22 -30 0
-22 -38 0
-22 -46 0
-22 -54 0
-22 -62 0
-22 -70 0
-22 -78 0
-22 -86 0
-22 -94 0
-30 -6 0
-30 -14 0
-30 -22 0
-30 -38 0
-30 -46 0
-30 -54 0
-30 -62 0
-30 -70 0
-30 -78 0
-30 -86 0
-30 -94 0
-38 -6 0
-38 -14 0
-38 -22 0
-38 -30 0
-38 -46 0
-38 -54 0
-38 -62 0
-38 -70 0
-38 -78 0
-38 -86 0
-38 -94 0
-46 -6 0
-46 -14 0
-46 -22 0
-46 -30 0
-46 -38 0
-46 -54 0
-46 -62 0
-46 -70 0
-46 -78 0
-46 -86 0
-46 -94 0
-54 -6 0
-54 -14 0
-54 -22 0
-54 -30 0
-54 -38 0
-54 -46 0
-54 -62 0
-54 -70 0
-54 -78 0
-54 -86 0
-54 -94 0
-62 -6 0
-62 -14 0
-62 -22 0
-62 -30 0
-62 -38 0
-62 -46 0
-62 -54 0
-62 -70 0
-62 -78 0
-62 -86 0
-62 -94 0
-70 -6 0
-70 -14 0
-70 -22 0
-70 -30 0
-70 -38 0
-70 -46 0
-70 -54 0
-70 -62 0
-70 -78 0
-70 -86 0
-70 -94 0
-78 -6 0
-78 -14 0
-78 -22 0
-78 -30 0
-78 -38 0
-78 -46 0
-78 -54 0
-78 -62 0
-78 -70 0
-78 -86 0
-78 -94 0
-86 -6 0
-86 -14 0
-86 -22 0
-86 -30 0
-86 -38 0
-86 -46 0
-86 -54 0
-86 -62 0
-86 -70 0
-86 -78 0
-86 -94 0
-94 -6 0
-94 -14 0
-94 -22 0
-94 -30 0
-94 -38 0
-94 -46 0
-94 -54 0
-94 -62 0
-94 -70 0
-94 -78 0
-94 -86 0
-7 -15 0
-7 -23 0
-7 -31 0
-7 -39 0
-7 -47 0
-7 -55 0
-7 -63 0
-7 -71 0
-7 -79 0
-7 -87 0
-7 -95 0
-15 -7 0
-15 -23 0
-15 -31 0
-15 -39 0
-15 -47 0
-15 -55 0
-15 -63 0
-15 -71 0
-15 -79 0
-15 -87 0
-15 -95 0
-23 -7 0
-23 -15 0
-23 -31 0
-23 -39 0
-23 -47 0
-23 -55 0
-23 -63 0
-23 -71 0
-23 -79 0
-23 -87 0
-23 -95 0
-31 -7 0
-31 -15 0
-31 -23 0
-31 -39 0
-31 -47 0
-31 -55 0
-31 -63 0
-31 -71 0
-31 -79 0
-31 -87 0
-31 -95 0
-39 -7 0
-39 -15 0
-39 -23 0
-39 -31 0
-39 -47 0
-39 -55 0
-39 -63 0
-39 -71 0
-39 -79 0
-39 -87 0
-39 -95 0
-47 -7 0
-47 -15 0
-47 -23 0
-47 -31 0
-47 -39 0
-47 -55 0
-47 -63 0
-47 -71 0
-47 -79 0
-47 -87 0
-47 -95 0
-55 -7 0
-55 -15 0
-55 -23 0
-55 -31 0
-55 -39 0
-55 -47 0
-55 -63 0
-55 -71 0
-55 -79 0
-55 -87 0
-55 -95 0
-63 -7 0
-63 -15 0
-63 -23 0
-63 -31 0
-63 -39 0
-63 -47 0
-63 -55 0
-63 -71 0
-63 -79 0
-63 -87 0
-63 -95 0
-71 -7 0
-71 -15 0
-71 -23 0
-71 -31 0
-71 -39 0
-71 -47 0
-71 -55 0
-71 -63 0
-71 -79 0
-71 -87 0
-71 -95 0
-79 -7 0
-79 -15 0
-79 -23 0
-79 -31 0
-79 -39 0
-79 -47 0
-79 -55 0
-79 -63 0
-79 -71 0
-79 -87 0
-79 -95 0
-87 -7 0
-87 -15 0
-87 -23 0
-87 -31 0
-87 -39 0
-87 -47 0
-87 -55 0
-87 -63 0
-87 -71 0
-87 -79 0
-87 -95 0
-95 -7 0
-95 -15 0
-95 -23 0
-95 -31 0
-95 -39 0
-95 -47 0
-95 -55 0
-95 -63 0
-95 -71 0
-95 -79 0
-95 -87 0
-8 -16 0
-8 -24 0
-8 -32 0
-8 -40 0
-8 -48 0
-8 -56 0
-8 -64 0
-8 -72 0
-8 -80 0
-8 -88 0
-8 -96 0
-16 -8 0
-16 -24 0
-16 -32 0
-16 -40 0
-16 -48 0
-16 -56 0
-16 -64 0
-16 -72 0
-16 -80 0
-16 -88 0
-16 -96 0
-24 -8 0
-24 -16 0
-24 -32 0
-24 -40 0
-24 -48 0
-24 -56 0
-24 -64 0
-24 -72 0
-24 -80 0
-24 -88 0
-24 -96 0
-32 -8 0
-32 -16 0
-32 -24 0
-32 -40 0
-32 -48 0
-32 -56 0
-32 -64 0
-32 -72 0
-32 -80 0
-32 -88 0
-32 -96 0
-40 -8 0
-40 -16 0
-40 -24 0
-40 -32 0
-40 -48 0
-40 -56 0
-40 -64 0
-40 -72 0
-40 -80 0
-40 -88 0
-40 -96 0
-48 -8 0
-48 -16 0
-48 -24 0
-48 -32 0
-48 -40 0
-48 -56 0
-48 -64 0
-48 -72 0
-48 -80 0
-48 -88 0
-48 -96 0
-56 -8 0
-56 -16 0
-56 -24 0
-56 -32 0
-56 -40 0
-56 -48 0
-56 -64 0
-56 -72 0
-56 -80 0
-56 -88 0
-56 -96 0
-64 -8 0
-64 -16 0
-64 -24 0
-64 -32 0
-64 -40 0
-64 -48 0
-64 -56 0
-64 -72 0
-64 -80 0
-64 -88 0
-64 -96 0
-72 -8 0
-72 -16 0
-72 -24 0
-72 -32 0
-72 -40 0
-72 -48 0
-72 -56 0
-72 -64 0
-72 -80 0
-72 -88 0
-72 -96 0
-80 -8 0
-80 -16 0
-80 -24 0
-80 -32 0
-80 -40 0
-80 -48 0
-80 -56 0
-80 -64 0
-80 -72 0
-80 -88 0
-80 -96 0
-88 -8 0
-88 -16 0
-88 -24 0
-88 -32 0
-88 -40 0
-88 -48 0
-88 -56 0
-88 -64 0
-88 -72 0
-88 -80 0
-88 -96 0
-96 -8 0
-96 -16 0
-96 -24 0
-96 -32 0
-96 -40 0
-96 -48 0
-96 -56 0
-96 -64 0
-96 -72 0
-96 -80 0
-96 -88 0
-1 -11 0
-1 -12 0
-1 -19 0
-1 -20 0
-2 -11 0
-2 -12 0
-2 -19 0
-2 -20 0
-9 -3 0
-9 -4 0
-9 -19 0
-9 -20 0
-10 -3 0
-10 -4 0
-10 -19 0
-10 -20 0
-17 -3 0
-17 -4 0
-17 -11 0
-17 -12 0
-18 -3 0
-18 -4 0
-18 -11 0
-18 -12 0
-25 -35 0
-25 -36 0
-25 -43 0
-25 -44 0
-26 -35 0
-26 -36 0
-26 -43 0
-26 -44 0
-33 -27 0
-33 -28 0
-33 -43 0
-33 -44 0
-34 -27 0
-34 -28 0
-34 -43 0
-34 -44 0
-41 -27 0
-41 -28 0
-41 -35 0
-41 -36 0
-42 -27 0
-42 -28 0
-42 -35 0
-42 -36 0
-49 -59 0
-49 -60 0
-49 -67 0
-49 -68 0
-50 -59 0
-50 -60 0
-50 -67 0
-50 -68 0
-57 -51 0
-57 -52 0
-57 -67 0
-57 -68 0
-58 -51 0
-58 -52 0
-58 -67 0
-58 -68 0
-65 -51 0
-65 -52 0
-65 -59 0
-65 -60 0
-66 -51 0
-66 -52 0
-66 -59 0
-66 -60 0
-73 -83 0
-73 -84 0
-73 -91 0
-73 -92 0
-74 -83 0
-74 -84 0
-74 -91 0
-74 -92 0
-81 -75 0
-81 -76 0
-81 -91 0
-81 -92 0
-82 -75 0
-82 -76 0
-82 -91 0
-82 -92 0
-89 -75 0
-89 -76 0
-89 -83 0
-89 -84 0
-90 -75 0
-90 -76 0
-90 -83 0
-90 -84 0
-3 -13 0
-3 -14 0
-3 -21 0
-3 -22 0
-4 -13 0
-4 -14 0
-4 -21 0
-4 -22 0
-11 -5 0
-11 -6 0
-11 -21 0
-11 -22 0
-12 -5 0
-12 -6 0
-12 -21 0
-12 -22 0
-19 -5 0
-19 -6 0
-19 -13 0
-19 -14 0
-20 -5 0
-20 -6 0
-20 -13 0
-20 -14 0
-27 -37 0
-27 -38 0
-27 -45 0
-27 -46 0
-28 -37 0
-28 -38 0
-28 -45 0
-28 -46 0
-35 -29 0
-35 -30 0
-35 -45 0
-35 -46 0
-36 -29 0
-36 -30 0
-36 -45 0
-36 -46 0
-43 -29 0
-43 -30 0
-43 -37 0
-43 -38 0
-44 -29 0
-44 -30 0
-44 -37 0
-44 -38 0
-51 -61 0
-51 -62 0
-51 -69 0
-51 -70 0
-52 -61 0
-52 -62 0
-52 -69 0
-52 -70 0
-59 -53 0
-59 -54 0
-59 -69 0
-59 -70 0
-60 -53 0
-60 -54 0
-60 -69 0
-60 -70 0
-67 -53 0
-67 -54 0
-67 -61 0
-67 -62 0
-68 -53 0
-68 -54 0
-68 -61 0
-68 -62 0
-75 -85 0
-75 -86 0
-75 -93 0
-75 -94 0
-76 -85 0
-76 -86 0
-76 -93 0
-76 -94 0
-83 -77 0
-83 -78 0
-83 -93 0
-83 -94 0
-84 -77 0
-84 -78 0
-84 -93 0
-84 -94 0
-91 -77 0
-91 -78 0
-91 -85 0
-91 -86 0
-92 -77 0
-92 -78 0
-92 -85 0
-92 -86 0
-5 -15 0
-5 -16 0
-5 -23 0
-5 -24 0
-6 -15 0
-6 -16 0
-6 -23 0
-6 -24 0
-13 -7 0
-13 -8 0
-13 -23 0
-13 -24 0
-14 -7 0
-14 -8 0
-14 -23 0
-14 -24 0
-21 -7 0
-21 -8 0
-21 -15 0
-21 -16 0
-22 -7 0
-22 -8 0
-22 -15 0
-22 -16 0
-29 -39 0
-29 -40 0
-29 -47 0
-29 -48 0
-30 -39 0
-30 -40 0
-30 -47 0
-30 -48 0
-37 -31 0
-37 -32 0
-37 -47 0
-37 -48 0
-38 -31 0
-38 -32 0
-38 -47 0
-38 -48 0
-45 -31 0
-45 -32 0
-45 -39 0
-45 -40 0
-46 -31 0
-46 -32 0
-46 -39 0
-46 -40 0
-53 -63 0
-53 -64 0
-53 -71 0
-53 -72 0
-54 -63 0
-54 -64 0
-54 -71 0
-54 -72 0
-61 -55 0
-61 -56 0
-61 -71 0
-61 -72 0
-62 -55 0
-62 -56 0
-62 -71 0
-62 -72 0
-69 -55 0
-69 -56 0
-69 -63 0
-69 -64 0
-70 -55 0
-70 -56 0
-70 -63 0
-70 -64 0
-77 -87 0
-77 -88 0
-77 -95 0
-77 -96 0
-78 -87 0
-78 -88 0
-78 -95 0
-78 -96 0
-85 -79 0
-85 -80 0
-85 -95 0
-85 -96 0
-86 -79 0
-86 -80 0
-86 -95 0
-86 -96 0
-93 -79 0
-93 -80 0
-93 -87 0
-93 -88 0
-94 -79 0
-94 -80 0
-94 -87 0
-94 -88 0
